  	
  &CONTROL
    prefix='gallium_arsenide',
    calculation = 'scf'
    restart_mode='from_scratch',
    pseudo_dir = '/home/paolo/project_labqsm/pseudopotentials'
    outdir = './SCRATCH'
 /
 &SYSTEM
    ibrav = 2, 
    celldm(1) = 10.682904472
    nat = 2, 
    ntyp = 2,
    ecutwfc =  33
    ecutrho = 330
 /
 &ELECTRONS
    mixing_mode = 'plain'
    mixing_beta = 0.7
    conv_thr =  1.0d-8
 /
ATOMIC_SPECIES
 Ga   69.723   Ga.pbe-dn-rrkjus_psl.0.2.UPF
 As   74.922   As.pbe-n-rrkjus_psl.0.2.UPF
ATOMIC_POSITIONS (alat)
 Ga 0.00 0.00 0.00
 As 0.25 0.25 0.25
K_POINTS {automatic}
 4 4 4   0 0 0  

