 &BANDS
    prefix = 'gallium arsenide'
    outdir = './SCRATCH/'
    filband = 'bands_gaas_13.dat'
 /
