&CONTROL
   calculation      = 'scf'
   verbosity        = 'high'
   restart_mode     = 'from_scratch'
   wf_collect       = .true.
   outdir           = './SCRATCH'
   prefix           = 'silicon'
   pseudo_dir       = '/home/paolo/project_labqsm/pseudopotentials'
/
&SYSTEM
   ecutwfc          = 40.0
   ntyp             = 1
   nat              = 1
   ibrav            = 0
/
&ELECTRONS
   conv_thr         = 1e-08
   mixing_mode      = 'plain'
   mixing_beta      = 0.7
/
&IONS
/
&CELL
/

ATOMIC_SPECIES
Si 28.085 Si.pz-vbc.UPF

K_POINTS automatic
4 4 4  0 0 0

CELL_PARAMETERS angstrom
0.00000000000000 5.13155092200000 5.13155092200000
5.13155092200000 0.00000000000000 5.13155092200000
5.13155092200000 5.13155092200000 0.00000000000000

ATOMIC_POSITIONS angstrom
Si 0.0000000000 0.0000000000 0.0000000000 

