&CONTROL
   calculation      = 'scf'
   verbosity        = 'high'
   restart_mode     = 'from_scratch'
   wf_collect       = .true.
   outdir           = './SCRATCH'
   prefix           = 'silicon'
   pseudo_dir       = '/home/paolo/project_labqsm/pseudopotentials'
/
&SYSTEM
   ibrav            = 2
   ntyp             = 1
   nat              = 1
   celldm(1)        = 0.0
/
&ELECTRONS
   conv_thr         = '1.0d-8'
   mixing_mode      = 'plain'
   mixing_beta      = 0.7
/
&IONS
/
&CELL
/

ATOMIC_SPECIES
Si 28.085 Si.pz-vbc.UPF

K_POINTS gamma

ATOMIC_POSITIONS angstrom
Si 0.0000000000 0.0000000000 0.0000000000 

