&CONTROL
    prefix='silicon',
    calculation = 'vc-relax'
    restart_mode='from_scratch',
    pseudo_dir = '/home/paolo/project_labqsm/pseudopotentials'
    outdir = '/home/paolo/project_labqsm/Silicon/SCRATCH'
    forc_conv_thr=1.0d-4
    etot_conv_thr=1.0d-5
 /
 &SYSTEM
    ibrav = 2, 
    celldm(1) = 10.7762569362
    nat = 2, 
    ntyp = 1,
    ecutwfc =  60.0
 /
 &ELECTRONS
    mixing_mode = 'plain'
    mixing_beta = 0.7
    conv_thr =  1.0d-8
 /
 &IONS
 /
 &CELL
    cell_dynamics="bfgs"
    press_conv_thr=0.5
    cell_dofree='all'
 /
ATOMIC_SPECIES
 Si   28.085   Si.pz-vbc.UPF
ATOMIC_POSITIONS (alat)
 Si 0.00 0.00 0.00
 Si 0.25 0.25 0.25
K_POINTS {automatic}
 8 8 8   0 0 0 