&CONTROL
    prefix='zns',
    calculation = 'bands'
    verbosity='high'
    restart_mode='from_scratch',
    pseudo_dir = '/home/paolo/project_labqsm/pseudopotentials'
    outdir = './SCRATCH'
 /
 &SYSTEM
    ibrav = 2, 
    celldm(1) = 9.45186474166746
    nat = 2, 
    ntyp = 2,
    ecutwfc = 60.0
    nbnd = 10
 /
 &ELECTRONS
    mixing_mode = 'plain'
    mixing_beta = 0.7
    conv_thr = 1.0d-8
 /
ATOMIC_SPECIES
 Zn   65.38   Zn.pz-hgh.UPF
 S    32.06   S.pz-hgh.UPF
ATOMIC_POSITIONS (alat)
 Zn 0.00 0.00 0.00
 S 0.25 0.25 0.25
K_POINTS {crystal_b}
 6
 0.500  0.500  0.000   40    # X 
 0.000  0.000  0.000   40    # G 
 0.500  0.500  0.500   40    # L 
 0.750  0.500  0.250   40    # W 
 0.750  0.375  0.375   40    # K 
 0.000  0.000  0.000    1    # G