&DOS
    prefix='zns',
    outdir ='./SCRATCH/'
    degauss=0.025  
    fildos ='zns_025.dat'
/
