  	
  &CONTROL
    prefix='silicon',
    calculation = 'scf'
    restart_mode='from_scratch',
    pseudo_dir = '/home/paolo/project_labqsm/pseudopotentials'
    outdir = './SCRATCH'
 /
 &SYSTEM
    ibrav = 2, 
    celldm(1) =10.263101844
    nat = 2, 
    ntyp = 1,
    ecutwfc =  40
 /
 &ELECTRONS
    mixing_mode = 'plain'
    mixing_beta = 0.7
    conv_thr =  1.0d-8
 /
 ATOMIC_SPECIES
  Si   28.085   Si_ONCV_PBE-1.2.upf
 ATOMIC_POSITIONS (alat)
  Si 0.00 0.00 0.00
  Si 0.25 0.25 0.25
 K_POINTS {automatic}
  4 4 4   0 0 0 

