&CONTROL
    prefix='gallium_arsenide',
    calculation = 'vc-relax'
    restart_mode='from_scratch',
    pseudo_dir = '/home/paolo/project_labqsm/pseudopotentials'
    outdir = '/home/paolo/project_labqsm/GaAs/SCRATCH'
    forc_conv_thr=1.0d-4
    etot_conv_thr=1.0d-5
 /
 &SYSTEM
    ibrav = 2, 
    celldm(1) = 11.2170496956
    nat = 2, 
    ntyp = 2,
    ecutwfc =  40
    ecutrho = 400
 /
 &ELECTRONS
    mixing_mode = 'plain'
    mixing_beta = 0.7
    conv_thr =  1.0d-8
 /
 &IONS
 /
 &CELL
    cell_dynamics="bfgs"
    press_conv_thr=0.5
    cell_dofree='all'
 /
ATOMIC_SPECIES
 Ga   69.723   Ga.pbe-dn-rrkjus_psl.0.2.UPF
 As   74.92160 As.pbe-n-rrkjus_psl.0.2.UPF
ATOMIC_POSITIONS (alat)
 Ga 0.00 0.00 0.00
 As 0.25 0.25 0.25
K_POINTS {automatic}
 8 8 8   0 0 0 