  	
  &CONTROL
    prefix='zns',
    calculation = 'scf'
    restart_mode='from_scratch',
    pseudo_dir = '/home/paolo/project_labqsm/pseudopotentials'
    outdir = './SCRATCH'
 /
 &SYSTEM
    ibrav = 2, 
    celldm(1) = 10.44716115516
    nat = 2, 
    ntyp = 2,
    ecutwfc =  50
    ecutrho = 200
 /
 &ELECTRONS
    mixing_mode = 'plain'
    mixing_beta = 0.7
    conv_thr =  1.0d-8
 /
ATOMIC_SPECIES
 Zn   65.38   Zn.pz-hgh.UPF
 S    32.06   S.pz-hgh.UPF
ATOMIC_POSITIONS (alat)
 Zn 0.00 0.00 0.00
 S  0.25 0.25 0.25
K_POINTS {automatic}
 8 8 8   0 0 0 

