&BANDS
    prefix = 'zns'
    outdir = './SCRATCH/'
    filband = 'bands_zns.dat'
 /
 