&CONTROL
    prefix='silicon',
    calculation = 'bands'
    verbosity='high'
    restart_mode='from_scratch',
    pseudo_dir = '/home/paolo/project_labqsm/pseudopotentials'
    outdir = './SCRATCH'
 /
 &SYSTEM
    ibrav = 2, 
    celldm(1) = 10.351192959340226
    nat = 2, 
    ntyp = 1,
    ecutwfc =  60.0
    nbnd = 10
 /
 &ELECTRONS
    mixing_mode = 'plain'
    mixing_beta = 0.7
    conv_thr =  1.0d-8
 /
ATOMIC_SPECIES
 Si   28.085   Si_ONCV_PBE-1.2.upf
ATOMIC_POSITIONS (alat)
 Si 0.00 0.00 0.00
 Si 0.25 0.25 0.25
K_POINTS {crystal_b}
 6
 0.500  0.500  0.000   40    # X 
 0.000  0.000  0.000   40    # G 
 0.500  0.500  0.500   40    # L 
 0.750  0.500  0.250   40    # W 
 0.750  0.375  0.375   40    # K 
 0.000  0.000  0.000    1    # G