&DOS
    prefix='silicon',
    outdir ='./SCRATCH/'
    degauss=0.025  
    fildos ='silicon_025.dat'
/
