&DOS
    prefix='silicon',
    outdir ='./SCRATCH/'
    degauss=0.025  
    fildos ='silicon.dos'
/