&DOS
    prefix='silicon',
    outdir ='./SCRATCH/'
    degauss=0.001
    fildos ='silicon_001.dat'
/
