&BANDS
    prefix = 'silicon'
    outdir = './SCRATCH/'
    filband = 'bands_silicon.dat'
 /
