&BANDS
    prefix = 'diamond'
    outdir = './SCRATCH/'
    filband = 'bands_diamond.dat'
 /
