 &BANDS
    prefix = 'gallium arsenide'
    outdir = './SCRATCH/'
    filband = 'bands_gaas.dat'
 /
