
 &CONTROL
    prefix='gallium arsenide',
    calculation = 'bands'
    restart_mode='from_scratch',
    pseudo_dir = '/home/paolo/LABQSM/pseudo/'
    outdir = './SCRATCH'
 /
 &SYSTEM
    ibrav = 2, 
    celldm(1) = 10.602837208663205
    nat = 2, 
    ntyp = 2,
    ecutwfc =  80.0
    nbnd = 20
 /
 &ELECTRONS
    mixing_mode = 'plain'
    mixing_beta = 0.7
    conv_thr =  1.0d-8
 /
ATOMIC_SPECIES
 Ga   69.723   Ga.pz-dn-rrkjus_psl.0.2.UPF
 As   74.922   As.pz-n-rrkjus_psl.0.2.UPF
ATOMIC_POSITIONS (alat)
 Ga 0.00 0.00 0.00
 As 0.25 0.25 0.25
K_POINTS {crystal_b}
 6
 0.500  0.500  0.000   40    # X 
 0.000  0.000  0.000   40    # G 
 0.500  0.500  0.500   40    # L 
 0.750  0.500  0.250   40    # W 
 0.750  0.375  0.375   40    # K 
 0.000  0.000  0.000    1    # G

