&CONTROL
    prefix='gallium_arsenide',
    calculation = 'bands'
    verbosity='high'
    restart_mode='from_scratch',
    pseudo_dir = '/home/paolo/project_labqsm/pseudopotentials'
    outdir = './SCRATCH'
 /
 &SYSTEM
    ibrav = 2, 
    celldm(1) = 10.6827
    nat = 2, 
    ntyp = 2,
    nbnd = 13
    ecutwfc =  33
    ecutrho = 180
 /
 &ELECTRONS
    mixing_mode = 'plain'
    mixing_beta = 0.7
    conv_thr = 1.0d-7
 /
ATOMIC_SPECIES
 Ga   69.723   Ga.pbe-dn-rrkjus_psl.0.2.UPF
 As   74.92160 As.pbe-n-rrkjus_psl.0.2.UPF

ATOMIC_POSITIONS (alat)
 Ga 0.0   0.0   0.0
 As 0.25  0.25  0.25

K_POINTS {crystal_b}
 6
 0.500  0.500  0.000   40    # X 
 0.000  0.000  0.000   40    # G 
 0.500  0.500  0.500   40    # L 
 0.750  0.500  0.250   40    # W 
 0.750  0.375  0.375   40    # K 
 0.000  0.000  0.000    1    # G