&BANDS
    prefix = 'gallium_arsenide'
    outdir = './SCRATCH/'
    filband = 'bands_gaas.dat'
 /
 